168
10000
1307
8507
6405
2674
2335
8689
4818
7877
232
2059
403
4041
5927
1493
2688
8562
230
4457
4567
2612
660
7388
5337
6413
308
963
3113
1438
5543
635
1190
773
6014
3630
5262
257
7218
488
2139
1
5366
3649
7539
3986
652
10
6640
1084
7318
2867
3613
2253
1783
9461
7155
3679
7471
1136
1208
2702
6051
1078
6318
5171
9597
5433
5306
9058
5386
1785
9017
6160
4371
2762
2186
2908
6369
2940
5480
942
697
896
120
1189
1076
2596
461
29
3360
499
777
3702
1826
571
38
733
8217
6061
6370
909
3824
7060
531
3840
3175
3661
5630
531
2423
135
2004
86
984
1899
1273
539
3239
1378
9990
701
1311
1882
809
2950
5182
9110
8215
1377
997
8131
4632
3130
2123
225
5243
9760
1681
3682
1489
2770
8578
4512
3949
1818
5566
2097
1489
4958
6351
3640
4073
5218
7134
4614
5042
240
9303
2529
2782
2184
1383
5389
8511
181
8393
983
1323
3488
